c uprop, v00.0, 
c reading from data/prog856.c.cnf
c done reading: 0.002944
p cnf 93 352
-47 -49 0
-49 -51 0
47 49 51 0
47 51 -54 0
-47 -51 -54 0
-47 51 54 0
47 -51 54 0
49 -57 0
-57 -60 0
-49 57 60 0
-49 60 -64 0
49 -60 -64 0
49 60 64 0
-49 -60 64 0
57 -67 0
-57 67 0
-57 -69 0
57 69 0
67 -72 0
-67 72 0
-48 -67 0
48 67 0
-52 72 0
52 -72 0
-62 -72 0
62 72 0
-44 52 0
44 -52 0
-43 -52 0
43 52 0
-40 44 0
40 -44 0
-39 -44 0
39 44 0
-36 51 0
-36 47 0
36 -47 -51 0
-35 -47 -51 0
-35 47 51 0
35 47 -51 0
35 -47 51 0
32 -51 -60 0
32 -36 -60 0
32 -36 -51 0
-32 51 60 0
-32 36 60 0
-32 36 51 0
-31 -32 60 0
-31 -32 51 0
-31 -32 36 0
31 32 -60 0
31 32 -51 0
31 32 -36 0
31 -36 -51 -60 0
-31 36 51 60 0
29 -32 -60 0
-29 60 0
-29 32 0
-29 32 60 0
-28 -29 0
-28 -29 60 0
-28 -29 32 0
28 29 -60 0
28 29 -32 0
-28 32 60 0
27 -29 0
-27 29 0
31 -53 0
47 -53 0
-31 -47 53 0
-31 -47 -56 0
31 47 -56 0
-31 47 56 0
31 -47 56 0
-28 -51 63 0
-28 -53 63 0
-51 -53 63 0
28 51 -63 0
28 53 -63 0
51 53 -63 0
28 -63 -66 0
51 -63 -66 0
53 -63 -66 0
-28 63 66 0
-51 63 66 0
-53 63 66 0
-28 -51 -53 66 0
28 51 53 -66 0
-27 -60 0
-27 -63 0
-60 -63 0
-27 71 0
-60 71 0
-63 71 0
-27 -60 -63 71 0
27 60 63 -71 0
-47 -74 0
-35 -74 0
35 47 74 0
35 47 -75 0
-35 -47 -75 0
35 -47 75 0
-35 47 75 0
74 -76 0
-56 -76 0
56 -74 76 0
56 -74 -77 0
-56 74 -77 0
56 74 77 0
-56 -74 77 0
76 -78 0
-66 -78 0
66 -76 78 0
66 -76 -79 0
-66 76 -79 0
66 76 79 0
-66 -76 79 0
78 -80 0
-71 -80 0
71 -78 80 0
71 -78 -81 0
-71 78 -81 0
71 78 81 0
-71 -78 81 0
80 -82 0
-80 82 0
-80 -83 0
80 83 0
82 -84 0
-82 84 0
-82 -85 0
82 85 0
84 -86 0
-84 86 0
-50 -84 0
50 84 0
-55 86 0
55 -86 0
-58 -86 0
58 86 0
55 -65 0
-55 65 0
-55 -68 0
55 68 0
65 -70 0
-65 70 0
-65 -73 0
65 73 0
-45 -87 0
45 87 0
-41 -89 0
41 89 0
-37 -90 0
37 90 0
-33 -92 0
33 92 0
-30 -93 0
30 93 0
-25 -26 0
25 26 0
24 -87 0
-24 87 0
-23 -24 87 0
-23 -24 0
23 24 -87 0
23 24 0
22 -87 -89 0
22 -24 -89 0
22 -24 -87 0
-22 87 89 0
-22 24 89 0
-22 24 87 0
-21 -22 89 0
-21 -22 87 0
-21 -22 24 0
21 22 -89 0
21 22 -87 0
21 22 -24 0
21 -24 -87 -89 0
-21 24 87 89 0
20 -89 -90 0
20 -22 -90 0
20 -22 -89 0
-20 89 90 0
-20 22 90 0
-20 22 89 0
-19 -20 90 0
-19 -20 89 0
-19 -20 22 0
19 20 -90 0
19 20 -89 0
19 20 -22 0
19 -22 -89 -90 0
-19 22 89 90 0
18 -90 -92 0
18 -20 -92 0
18 -20 -90 0
-18 90 92 0
-18 20 92 0
-18 20 90 0
-17 -18 92 0
-17 -18 90 0
-17 -18 20 0
17 18 -92 0
17 18 -90 0
17 18 -20 0
17 -20 -90 -92 0
-17 20 90 92 0
16 -92 -93 0
16 -18 -93 0
16 -18 -92 0
-16 92 93 0
-16 18 93 0
-16 18 92 0
-15 -16 93 0
-15 -16 92 0
-15 -16 18 0
15 16 -93 0
15 16 -92 0
15 16 -18 0
15 -18 -92 -93 0
-15 18 92 93 0
14 -26 -93 0
14 -16 -26 0
14 -16 -93 0
-14 26 93 0
-14 16 26 0
-14 16 93 0
-13 -14 26 0
-13 -14 93 0
-13 -14 16 0
13 14 -26 0
13 14 -93 0
13 14 -16 0
13 -16 -26 -93 0
-13 16 26 93 0
-12 26 0
-12 14 0
12 -14 -26 0
-14 -26 -46 0
14 26 -46 0
14 -26 46 0
-14 26 46 0
19 -59 0
-19 59 0
11 -17 0
-11 17 0
-10 -11 17 0
-10 -11 0
10 11 -17 0
10 11 0
9 -15 -87 0
9 -11 -15 0
9 -11 -87 0
-9 15 87 0
-9 11 15 0
-9 11 87 0
-8 -9 15 0
-8 -9 87 0
-8 -9 11 0
8 9 -15 0
8 9 -87 0
8 9 -11 0
8 -11 -15 -87 0
-8 11 15 87 0
7 -13 -89 0
7 -9 -13 0
7 -9 -89 0
-7 13 89 0
-7 9 13 0
-7 9 89 0
7 -13 0
7 -89 0
7 -9 0
-9 -13 -89 0
6 -46 -90 0
6 -7 -46 0
6 -7 -90 0
-6 46 90 0
-6 7 46 0
-6 7 90 0
6 -46 0
6 -90 0
6 -7 0
-7 -46 -90 0
-12 88 -92 0
-6 -12 88 0
-6 88 -92 0
12 -88 92 0
6 12 -88 0
6 -88 92 0
-12 88 0
88 -92 0
-6 88 0
-6 -12 -92 0
-91 93 0
88 -91 0
-88 91 -93 0
88 -93 0
-88 93 0
-26 -91 0
-26 91 0
26 -91 0
-5 -23 0
5 23 0
-4 -21 0
4 21 0
-3 -59 0
3 59 0
-2 -10 0
2 10 0
-1 -8 0
1 8 0
47 -61 0
23 -61 0
-23 -47 61 0
23 -47 0
-23 47 0
-21 -35 42 0
-35 42 -61 0
-21 42 -61 0
21 35 -42 0
35 -42 61 0
21 -42 61 0
-35 42 0
-21 42 0
42 -61 0
-21 -35 -61 0
38 -56 -59 0
38 -42 -56 0
38 -42 -59 0
-38 56 59 0
-38 42 56 0
-38 42 59 0
38 -56 0
38 -59 0
38 -42 0
-42 -56 -59 0
-10 34 -66 0
34 -38 -66 0
-10 34 -38 0
10 -34 66 0
-34 38 66 0
10 -34 38 0
-34 66 0
10 -34 0
-34 38 0
10 38 66 0
-8 -71 0
-34 -71 0
-8 -34 0
8 34 71 0
